(set-option :smt.auto-config false)
(set-option :smt.mbqi false)
(set-option :sat.random_seed 488)
(set-option :smt.random_seed 599)
(set-option :nlsat.seed 611)
(set-option :memory_max_size 6000)
(declare-sort man 0)
(declare-sort RegExStr 0)
(declare-sort RMode 0)
(declare-fun shave (man) man)
(declare-const barber man)
(assert (! (forall ((x0py0 man)) (! (or (= (shave x0py0) x0py0) (= (shave x0py0) barber)) :pattern ((shave x0py0)) )) :named A0))
(assert (! (forall ((x1py0 man)) (! (or (not (= (shave x1py0) barber)) (not (= (shave x1py0) x1py0))) :pattern ((shave x1py0)) )) :named A1))
